n = 10;
colSum=[5,2,7,6,3,6,2,1,0,0];
rowSum=[2,6,5,4,3,2,1,4,2,3];
groups=[|1,1,2,3,3,3,3,4,4,4|1,2,2,2,3,4,4,4,4,4|1,2,5,5,5,6,6,4,4,6|1,1,6,6,6,6,6,6,6,6|7,7,7,6,6,6,6,8,8,6|7,9,9,9,9,9,6,8,8,6|7,9,9,9,8,9,6,6,8,6|9,9,9,8,8,9,6,6,8,8|9,10,10,8,8,6,6,8,8,8|10,10,10,8,8,8,8,8,8,8|];
rowN = 10;
colN = 10;
pair=[|0,1,0,0,0,1,1,0,0,0|1,0,1,0,1,0,0,0,0,0|0,1,0,1,1,0,0,0,0,0|0,0,0,0,0,1,0,0,0,0|0,0,0,0,0,1,0,0,0,0|0,0,0,1,0,0,1,1,1,0|0,0,0,0,0,1,0,0,1,0|0,0,0,0,0,1,0,0,1,0|0,0,0,0,0,1,0,1,0,1|0,0,0,0,0,0,0,1,0,0|];
